\ Model beckFiala
\ LP format - for model browsing. Use MPS format to capture full model detail.
Maximize
  + 21 Constant + [ 2 x13 ^2 + 2 x15 ^2 ] / 2 
Subject To
Bounds
 -100 <= x13 <= 100
 -100 <= x15 <= 100
 Constant = 1
End
